c File: instances/24_0.40_2.col
c
c Description: Random graph of size 24 vertices and P(0.39999999999999997) of edges between any two vertices.
p col 24 276
e 1 6
e 1 7
e 1 10
e 1 11
e 1 13
e 1 14
e 1 16
e 1 18
e 1 20
e 1 21
e 1 23
e 2 4
e 2 7
e 2 8
e 2 13
e 2 17
e 2 18
e 2 20
e 3 7
e 3 8
e 3 14
e 3 15
e 3 17
e 3 20
e 3 24
e 4 5
e 4 6
e 4 9
e 4 10
e 4 12
e 4 15
e 4 19
e 4 21
e 4 22
e 5 8
e 5 10
e 5 11
e 5 12
e 5 20
e 5 21
e 5 22
e 5 24
e 6 9
e 6 11
e 6 12
e 6 14
e 6 17
e 6 18
e 6 19
e 6 20
e 6 24
e 7 18
e 7 22
e 8 9
e 8 14
e 8 15
e 8 18
e 8 19
e 8 20
e 8 21
e 8 23
e 8 24
e 9 10
e 9 14
e 9 15
e 9 16
e 9 18
e 9 19
e 9 20
e 10 11
e 10 12
e 10 14
e 10 15
e 10 18
e 10 23
e 11 12
e 11 15
e 11 16
e 11 17
e 11 20
e 11 21
e 11 22
e 11 24
e 12 15
e 12 16
e 12 21
e 12 22
e 13 14
e 13 15
e 13 17
e 13 19
e 13 21
e 13 22
e 13 23
e 13 24
e 14 18
e 14 21
e 14 23
e 15 16
e 15 18
e 15 22
e 15 24
e 16 17
e 16 20
e 16 23
e 16 24
e 17 19
e 17 20
e 19 20
e 19 22
e 19 23
e 20 23
e 20 24
e 21 22
e 21 23
e 21 24
e 22 23
e 22 24